(set-logic HORN)
(declare-fun state (Int Int Int Int (Array Int Int) Int Int Int (Array Int Int) Bool) Bool)
(assert (forall ((|A_0| Int) (|E_0| Int) (|F_0| Int) (|B_0| Int) (|H_0| (Array Int Int)) (|C_0| Int) (|G_0| Int) (|D_0| Int) (|I_0| (Array Int Int)) (|.loc.11| Bool) (|.loc.21| Bool) (|.y.15| Int) (|.y.14| Int) (|.y.12| Int) (|.y.20| (Array Int Int)) (|.y.18| Int) (|.y.17| Int) (|.y.13| Int) (|.y.16| (Array Int Int)) (|.y.19| Int)) (=> (and (and (and (= (+ A_0 (* (- 1) C_0)) 4) (and (= (+ B_0 (* (- 1) D_0)) 4) (and (= E_0 0) (= H_0 I_0)))) (= F_0 G_0)) (not .loc.11)) (state |A_0| |E_0| |F_0| |B_0| |H_0| |C_0| |G_0| |D_0| |I_0| |.loc.11|))))
(assert (forall ((|A_0| Int) (|E_0| Int) (|F_0| Int) (|B_0| Int) (|H_0| (Array Int Int)) (|C_0| Int) (|G_0| Int) (|D_0| Int) (|I_0| (Array Int Int)) (|.loc.11| Bool) (|.loc.21| Bool) (|.y.15| Int) (|.y.14| Int) (|.y.12| Int) (|.y.20| (Array Int Int)) (|.y.18| Int) (|.y.17| Int) (|.y.13| Int) (|.y.16| (Array Int Int)) (|.y.19| Int)) (=> (and (state |A_0| |E_0| |F_0| |B_0| |H_0| |C_0| |G_0| |D_0| |I_0| |.loc.11|) (let ((.def_39 (<= F_0 E_0))) (let ((.def_40 (<= G_0 0))) (let ((.def_46 (not .def_39))) (let ((.def_47 (not .def_40))) (let ((.def_49 (not .loc.21))) (let ((.def_52 (= B_0 .y.15))) (let ((.def_55 (= F_0 .y.14))) (let ((.def_58 (= A_0 .y.12))) (let ((.def_65 (= (store I_0 (+ C_0 4) (select I_0 (+ D_0 4))) .y.20))) (let ((.def_70 (= (+ G_0 (* (- 1) .y.18)) 1))) (let ((.def_76 (= (+ C_0 (* (- 1) .y.17)) (- 4)))) (let ((.def_81 (= (+ E_0 (* (- 1) .y.13)) (- 1)))) (let ((.def_90 (= (store H_0 (+ A_0 (* 4 E_0)) (select H_0 (+ (* 4 E_0) B_0))) .y.16))) (let ((.def_95 (= (+ D_0 (* (- 1) .y.19)) (- 4)))) (and (not .loc.11) (or (or (or (and (and (and .def_39 .def_40) (not (= H_0 I_0))) .loc.21) (and (and (and (and (and (and (and (and (and (and (and .def_46 .def_47) .def_49) .def_52) .def_55) .def_58) .def_65) .def_70) .def_76) .def_81) .def_90) .def_95)) (and (= C_0 .y.17) (and (= G_0 .y.18) (and (= D_0 .y.19) (and (= I_0 .y.20) (and .def_90 (and .def_81 (and .def_58 (and .def_55 (and .def_52 (and .def_49 (and .def_40 .def_46)))))))))))) (and (= E_0 .y.13) (and (= H_0 .y.16) (and .def_95 (and .def_76 (and .def_70 (and .def_65 (and .def_58 (and .def_55 (and .def_52 (and .def_49 (and .def_39 .def_47)))))))))))))))))))))))))))) (state |.y.12| |.y.13| |.y.14| |.y.15| |.y.16| |.y.17| |.y.18| |.y.19| |.y.20| |.loc.21|))))
(assert (forall ((|A_0| Int) (|E_0| Int) (|F_0| Int) (|B_0| Int) (|H_0| (Array Int Int)) (|C_0| Int) (|G_0| Int) (|D_0| Int) (|I_0| (Array Int Int)) (|.loc.11| Bool) (|.loc.21| Bool) (|.y.15| Int) (|.y.14| Int) (|.y.12| Int) (|.y.20| (Array Int Int)) (|.y.18| Int) (|.y.17| Int) (|.y.13| Int) (|.y.16| (Array Int Int)) (|.y.19| Int)) (=> (state |A_0| |E_0| |F_0| |B_0| |H_0| |C_0| |G_0| |D_0| |I_0| |.loc.11|) (not .loc.11))))
(check-sat)
